num_teams = 8;
cost = [|0,30,19,50,13,17,31,48,
|17,0,36,4,38,2,15,15,
|40,3,0,48,34,8,37,45,
|28,27,18,0,34,24,42,26,
|29,23,37,29,0,8,27,5,
|7,35,44,4,50,0,50,49,
|43,47,22,2,27,13,0,49,
|2,42,20,34,4,9,2,0,
|];